37
25
0 25 28 29 30 31 33 36
1 25 26 30 31 32 36
2 25 26 29 30 32 33
3 25 26 27 28 31 32 33
4 25 28 29 30 32 33 36
5 25 26 30 31 36
6 26 28 33
7 26 27 28 32 33 35
8 29 31 33
9 28 29 31 33
10 25 27 28 31 35 36
11 26 33 36
12 25 26 28 29 31 33 36
13 25 29 31 32
14 25 32 33 35
15 26 28 30 31 36
16 25 29 30 32 33
17 26 31 33
18 29 31 33 34 35
19 29 30 31
20 26
21 29 30 36
22 25 28 32 33
23
24
